p cnf 60 236
-1 -4 0 
-2 -5 0 
-3 -6 0 
1 2 3 0 
-1 -2 0 
-1 -3 0 
-2 -1 0 
-2 -3 0 
-3 -1 0 
-3 -2 0 
-4 -1 0 
-5 -2 0 
-6 -3 0 
-4 -7 0 
-5 -8 0 
-6 -9 0 
4 5 6 0 
-4 -5 0 
-4 -6 0 
-5 -4 0 
-5 -6 0 
-6 -4 0 
-6 -5 0 
-7 -4 0 
-8 -5 0 
-9 -6 0 
-7 -10 0 
-8 -11 0 
-9 -12 0 
7 8 9 0 
-7 -8 0 
-7 -9 0 
-8 -7 0 
-8 -9 0 
-9 -7 0 
-9 -8 0 
-10 -7 0 
-11 -8 0 
-12 -9 0 
-10 -13 0 
-11 -14 0 
-12 -15 0 
10 11 12 0 
-10 -11 0 
-10 -12 0 
-11 -10 0 
-11 -12 0 
-12 -10 0 
-12 -11 0 
-13 -10 0 
-14 -11 0 
-15 -12 0 
-13 -16 0 
-14 -17 0 
-15 -18 0 
13 14 15 0 
-13 -14 0 
-13 -15 0 
-14 -13 0 
-14 -15 0 
-15 -13 0 
-15 -14 0 
-16 -13 0 
-17 -14 0 
-18 -15 0 
-16 -19 0 
-17 -20 0 
-18 -21 0 
16 17 18 0 
-16 -17 0 
-16 -18 0 
-17 -16 0 
-17 -18 0 
-18 -16 0 
-18 -17 0 
-19 -16 0 
-20 -17 0 
-21 -18 0 
-19 -22 0 
-20 -23 0 
-21 -24 0 
19 20 21 0 
-19 -20 0 
-19 -21 0 
-20 -19 0 
-20 -21 0 
-21 -19 0 
-21 -20 0 
-22 -19 0 
-23 -20 0 
-24 -21 0 
-22 -25 0 
-23 -26 0 
-24 -27 0 
22 23 24 0 
-22 -23 0 
-22 -24 0 
-23 -22 0 
-23 -24 0 
-24 -22 0 
-24 -23 0 
-25 -22 0 
-26 -23 0 
-27 -24 0 
-25 -28 0 
-26 -29 0 
-27 -30 0 
25 26 27 0 
-25 -26 0 
-25 -27 0 
-26 -25 0 
-26 -27 0 
-27 -25 0 
-27 -26 0 
-28 -25 0 
-29 -26 0 
-30 -27 0 
-28 -31 0 
-29 -32 0 
-30 -33 0 
28 29 30 0 
-28 -29 0 
-28 -30 0 
-29 -28 0 
-29 -30 0 
-30 -28 0 
-30 -29 0 
-31 -28 0 
-32 -29 0 
-33 -30 0 
-31 -34 0 
-32 -35 0 
-33 -36 0 
31 32 33 0 
-31 -32 0 
-31 -33 0 
-32 -31 0 
-32 -33 0 
-33 -31 0 
-33 -32 0 
-34 -31 0 
-35 -32 0 
-36 -33 0 
-34 -37 0 
-35 -38 0 
-36 -39 0 
34 35 36 0 
-34 -35 0 
-34 -36 0 
-35 -34 0 
-35 -36 0 
-36 -34 0 
-36 -35 0 
-37 -34 0 
-38 -35 0 
-39 -36 0 
37 38 39 0 
-37 -38 0 
-37 -39 0 
-38 -37 0 
-38 -39 0 
-39 -37 0 
-39 -38 0 
-40 -40 0 
-41 -41 0 
-42 -42 0 
40 41 42 0 
-40 -41 0 
-40 -42 0 
-41 -40 0 
-41 -42 0 
-42 -40 0 
-42 -41 0 
-43 -43 0 
-44 -44 0 
-45 -45 0 
43 44 45 0 
-43 -44 0 
-43 -45 0 
-44 -43 0 
-44 -45 0 
-45 -43 0 
-45 -44 0 
-46 -49 0 
-47 -50 0 
-48 -51 0 
46 47 48 0 
-46 -47 0 
-46 -48 0 
-47 -46 0 
-47 -48 0 
-48 -46 0 
-48 -47 0 
-49 -46 0 
-50 -47 0 
-51 -48 0 
-49 -52 0 
-50 -53 0 
-51 -54 0 
49 50 51 0 
-49 -50 0 
-49 -51 0 
-50 -49 0 
-50 -51 0 
-51 -49 0 
-51 -50 0 
-52 -49 0 
-53 -50 0 
-54 -51 0 
52 53 54 0 
-52 -53 0 
-52 -54 0 
-53 -52 0 
-53 -54 0 
-54 -52 0 
-54 -53 0 
-55 -55 0 
-56 -56 0 
-57 -57 0 
55 56 57 0 
-55 -56 0 
-55 -57 0 
-56 -55 0 
-56 -57 0 
-57 -55 0 
-57 -56 0 
-58 -58 0 
-59 -59 0 
-60 -60 0 
58 59 60 0 
-58 -59 0 
-58 -60 0 
-59 -58 0 
-59 -60 0 
-60 -58 0 
-60 -59 0 

